75
126
95
80
81
98
114
126
123
110
108
125
83
105
149
128
139
137
0
102
68
140
141
163
117
119
102
117
68
142
162
108
95
127
104
125
0
126
134
105
160
86
131
130
135
112
98
107
71
125
119
125
164
88
95
93
88
0
112
170
136
87
0
136
78
138
145
180
119
111
115
117
128
135
124
125
71
133
141
88
135
105
83
165
104
98
96
113
113
125
97
147
115
131
116
102
106
122
153
113
